Using license file /home/benedond/gurobi.lic
Using gurobi.env file
Set parameter Threads to value 1
Academic license - for non-commercial use only
Changed value of parameter TimeLimit to 300.0
   Prev: inf  Min: 0.0  Max: inf  Default: inf
Gurobi Optimizer version 9.0.1 build v9.0.1rc0 (linux64)
Optimize a model with 5075 rows, 2520 columns and 19738 nonzeros
Model fingerprint: 0x0be89b80
Variable types: 35 continuous, 2485 integer (2450 binary)
Coefficient statistics:
  Matrix range     [2e-01, 5e+03]
  Objective range  [7e-04, 2e-01]
  Bounds range     [1e+00, 1e+00]
  RHS range        [1e+00, 5e+03]

---------------------------------------------------------------------------
Multi-objectives: starting optimization with 1 objectives ... 
---------------------------------------------------------------------------
---------------------------------------------------------------------------

Multi-objectives: optimize objective 1 (min avg power cons) ...
---------------------------------------------------------------------------

Optimize a model with 5075 rows, 2520 columns and 19738 nonzeros
Variable types: 35 continuous, 2485 integer (2450 binary)
Coefficient statistics:
  Matrix range     [2e-01, 5e+03]
  Objective range  [7e-04, 2e-01]
  Bounds range     [1e+00, 1e+00]
  RHS range        [1e+00, 5e+03]
Presolve removed 3081 rows and 1534 columns
Presolve time: 0.27s
Presolved: 1994 rows, 986 columns, 7485 nonzeros
Variable types: 31 continuous, 955 integer (924 binary)

Root relaxation: objective 1.563234e+00, 375 iterations, 0.01 seconds

    Nodes    |    Current Node    |     Objective Bounds      |     Work
 Expl Unexpl |  Obj  Depth IntInf | Incumbent    BestBd   Gap | It/Node Time

     0     0    1.56323    0   84          -    1.56323      -     -    0s
H    0     0                       4.3458897    1.56323  64.0%     -    0s
H    0     0                       4.1098966    1.56323  62.0%     -    0s
H    0     0                       3.7759104    1.56323  58.6%     -    0s
     0     0    1.58291    0  148    3.77591    1.58291  58.1%     -    0s
H    0     0                       3.7538207    1.58291  57.8%     -    0s
     0     0    1.63863    0  127    3.75382    1.63863  56.3%     -    0s
     0     0    1.65858    0  106    3.75382    1.65858  55.8%     -    0s
H    0     0                       3.7318069    1.65858  55.6%     -    0s
H    0     0                       3.5342207    1.65858  53.1%     -    0s
     0     0    1.66549    0   90    3.53422    1.66549  52.9%     -    0s
     0     0    1.73471    0  105    3.53422    1.73471  50.9%     -    0s
H    0     0                       3.4936552    1.73471  50.3%     -    0s
     0     0    1.76859    0  104    3.49366    1.76859  49.4%     -    0s
     0     0    1.85262    0  137    3.49366    1.85262  47.0%     -    0s
H    0     0                       3.4292897    1.85262  46.0%     -    0s
     0     0    1.87551    0  146    3.42929    1.87551  45.3%     -    0s
     0     0    1.89459    0  146    3.42929    1.89459  44.8%     -    0s
H    0     0                       3.3899793    1.89459  44.1%     -    0s
     0     0    1.90087    0  142    3.38998    1.90087  43.9%     -    0s
     0     0    1.91345    0  124    3.38998    1.91345  43.6%     -    0s
     0     0    1.91813    0  117    3.38998    1.91813  43.4%     -    0s
     0     0    1.92228    0  138    3.38998    1.92228  43.3%     -    0s
     0     0    1.92343    0  155    3.38998    1.92343  43.3%     -    1s
     0     0    1.92390    0  135    3.38998    1.92390  43.2%     -    1s
     0     0    1.92392    0  139    3.38998    1.92392  43.2%     -    1s
     0     0    1.95786    0  195    3.38998    1.95786  42.2%     -    1s
     0     0    1.97605    0  177    3.38998    1.97605  41.7%     -    1s
     0     0    1.98695    0  189    3.38998    1.98695  41.4%     -    1s
     0     0    1.98752    0  183    3.38998    1.98752  41.4%     -    1s
     0     0    1.98757    0  182    3.38998    1.98757  41.4%     -    1s
     0     0    2.01184    0  143    3.38998    2.01184  40.7%     -    1s
H    0     0                       3.3740897    2.01184  40.4%     -    1s
     0     0    2.01719    0  139    3.37409    2.01719  40.2%     -    1s
     0     0    2.01891    0  151    3.37409    2.01891  40.2%     -    1s
     0     0    2.01901    0  153    3.37409    2.01901  40.2%     -    1s
     0     0    2.02460    0  147    3.37409    2.02460  40.0%     -    1s
     0     0    2.02601    0  166    3.37409    2.02601  40.0%     -    1s
     0     0    2.02645    0  159    3.37409    2.02645  39.9%     -    1s
     0     0    2.02648    0  154    3.37409    2.02648  39.9%     -    1s
     0     0    2.03489    0  135    3.37409    2.03489  39.7%     -    1s
     0     0    2.03967    0  154    3.37409    2.03967  39.5%     -    1s
     0     0    2.04053    0  168    3.37409    2.04053  39.5%     -    1s
     0     0    2.04116    0  167    3.37409    2.04116  39.5%     -    1s
     0     0    2.04138    0  166    3.37409    2.04138  39.5%     -    1s
     0     0    2.04144    0  169    3.37409    2.04144  39.5%     -    1s
     0     0    2.04614    0  152    3.37409    2.04614  39.4%     -    1s
     0     0    2.04732    0  172    3.37409    2.04732  39.3%     -    1s
     0     0    2.04796    0  155    3.37409    2.04796  39.3%     -    1s
     0     0    2.04807    0  173    3.37409    2.04807  39.3%     -    1s
     0     0    2.05210    0  173    3.37409    2.05210  39.2%     -    1s
     0     0    2.05305    0  202    3.37409    2.05305  39.2%     -    1s
     0     0    2.05310    0  223    3.37409    2.05310  39.2%     -    1s
     0     0    2.05591    0  170    3.37409    2.05591  39.1%     -    1s
     0     0    2.05693    0  170    3.37409    2.05693  39.0%     -    1s
     0     0    2.05735    0  173    3.37409    2.05735  39.0%     -    1s
     0     0    2.05758    0  173    3.37409    2.05758  39.0%     -    1s
     0     0    2.05968    0  181    3.37409    2.05968  39.0%     -    1s
     0     0    2.06133    0  221    3.37409    2.06133  38.9%     -    1s
     0     0    2.06189    0  175    3.37409    2.06189  38.9%     -    1s
     0     0    2.06222    0  197    3.37409    2.06222  38.9%     -    1s
     0     0    2.06241    0  200    3.37409    2.06241  38.9%     -    1s
     0     0    2.06452    0  168    3.37409    2.06452  38.8%     -    1s
H    0     0                       3.3691655    2.06452  38.7%     -    2s
     0     0    2.06553    0  201    3.36917    2.06553  38.7%     -    2s
     0     0    2.06582    0  203    3.36917    2.06582  38.7%     -    2s
     0     0    2.06589    0  179    3.36917    2.06589  38.7%     -    2s
     0     0    2.06684    0  175    3.36917    2.06684  38.7%     -    2s
     0     0    2.06684    0  174    3.36917    2.06684  38.7%     -    2s
     0     2    2.06691    0  173    3.36917    2.06691  38.7%     -    2s
H   27    27                       3.2798345    2.11930  35.4%   263    2s
H   81    81                       3.2565587    2.11930  34.9%   139    3s
   494   428    2.48721   29  119    3.25656    2.17834  33.1%  71.2    5s
   546   469    2.17834   11  165    3.25656    2.17834  33.1%  84.4   10s
   623   514    2.68234   50   95    3.25656    2.17834  33.1%   112   15s
  1176   738    2.61043   30  112    3.25656    2.17834  33.1%   103   20s
H 1258   745                       3.2565587    2.17834  33.1%   101   22s
  1680   919    2.37027   18  129    3.25656    2.20298  32.4%  89.6   25s
  2266  1325    2.59131   36  132    3.25656    2.21910  31.9%  79.6   30s
  3282  2080    2.96382   49   87    3.25656    2.24773  31.0%  71.4   35s
H 3463  2205                       3.2440552    2.25302  30.5%  72.4   37s
  3780  2426    2.86598   29  134    3.24406    2.26236  30.3%  74.2   40s
H 4274  2758                       3.2402828    2.27461  29.8%  73.4   43s
  4386  2843    2.82899   53  107    3.24028    2.27542  29.8%  73.7   45s
  5068  3317    2.58670   26  183    3.24028    2.29470  29.2%  72.8   50s
H 5101  3337                       3.2402828    2.29470  29.2%  73.4   53s
  5115  3347    2.96760   51  205    3.24028    2.29470  29.2%  73.2   55s
  5129  3358    2.29470   25  199    3.24028    2.29470  29.2%  74.4   60s
  5176  3387    2.51211   48  128    3.24028    2.29470  29.2%  77.2   65s
  5707  3605    2.43552   30  144    3.24028    2.29470  29.2%  77.9   70s
  5993  3739    2.74956   68   87    3.24028    2.29470  29.2%  78.4   75s
  6386  3884    2.29470   25  229    3.24028    2.29470  29.2%  79.5   80s
  6820  4096    2.96255   94   69    3.24028    2.29470  29.2%  82.5   85s
  7169  4237    2.36552   28  162    3.24028    2.29833  29.1%  81.8   90s
  7718  4482    2.78593   73   89    3.24028    2.30218  29.0%  82.5   95s
  7994  4617    2.86641   47  140    3.24028    2.30811  28.8%  85.3  100s
  8504  4814    3.09338   73   94    3.24028    2.31403  28.6%  87.8  105s
  9057  4986    2.55647   38  241    3.24028    2.33356  28.0%  88.3  110s
  9337  5135    2.78379   70  115    3.24028    2.33545  27.9%  90.6  115s
  9814  5331    2.54896   38  142    3.24028    2.34552  27.6%  91.0  120s
 10342  5540    2.76004   41  105    3.24028    2.35891  27.2%  91.3  125s
 10935  5755    2.65221   50  146    3.24028    2.36249  27.1%  91.7  130s
 11439  5971    2.91845   52  109    3.24028    2.37282  26.8%  92.1  135s
 11952  6147    3.01204   53  101    3.24028    2.37732  26.6%  92.4  140s
 12340  6301    2.92548   64  137    3.24028    2.38003  26.5%  93.4  145s
 12788  6453    3.05432  112   44    3.24028    2.38466  26.4%  93.1  156s
 13096  6547    2.41265   43  159    3.24028    2.38930  26.3%  93.1  160s
 13594  6699    2.82452   52  151    3.24028    2.39584  26.1%  93.4  165s
 14136  6924    2.89189   52  109    3.24028    2.40048  25.9%  94.0  170s
 14590  7065    2.65306   43   96    3.24028    2.40472  25.8%  94.5  175s
 14934  7196    3.01566   78   76    3.24028    2.41047  25.6%  96.0  180s
 15304  7383    2.70034   64  174    3.24028    2.41205  25.6%  96.6  219s
 15307  7385    2.47299   32  190    3.24028    2.41205  25.6%  96.5  220s
 15328  7399    3.11783  120  213    3.24028    2.41205  25.6%  96.4  225s
 15340  7407    2.83081   56  207    3.24028    2.41205  25.6%  96.3  230s
 15353  7416    2.89784   50  210    3.24028    2.41205  25.6%  96.2  235s
 15365  7424    2.91627   68  193    3.24028    2.41205  25.6%  96.2  240s
 15378  7432    2.81684   55  213    3.24028    2.41205  25.6%  96.1  245s
 15389  7440    3.07848   64  206    3.24028    2.41205  25.6%  96.0  250s
 15402  7448    3.10826   79  217    3.24028    2.41205  25.6%  95.9  255s
 15414  7456    3.14588   76  194    3.24028    2.41205  25.6%  95.9  260s
 15426  7464    2.68235   49  196    3.24028    2.41205  25.6%  95.8  265s
 15437  7472    3.15026   81  194    3.24028    2.41205  25.6%  95.7  270s
 15449  7480    2.98924   40  189    3.24028    2.41205  25.6%  95.6  275s
 15461  7488    2.53898   51  235    3.24028    2.41205  25.6%  95.6  280s
 15472  7495    2.66366   68  234    3.24028    2.41205  25.6%  95.5  285s
 15485  7504    3.00546  106  190    3.24028    2.41205  25.6%  95.4  290s
 15496  7511    2.95460   59  192    3.24028    2.41205  25.6%  95.4  295s

Cutting planes:
  Gomory: 1
  Cover: 9
  Implied bound: 21
  Projected implied bound: 4
  Clique: 1
  MIR: 140
  Flow cover: 133
  GUB cover: 25
  Relax-and-lift: 76

Explored 15508 nodes (1521914 simplex iterations) in 300.00 seconds
Thread count was 1 (of 4 available processors)

Solution count 10: 3.24028 3.24406 3.25656 ... 3.53422

Time limit reached
Best objective 3.240282782190e+00, best bound 2.412053895616e+00, gap 25.5604%

---------------------------------------------------------------------------
Multi-objectives: stopped in 300.01 seconds, solution count 10
Time Limit reached

